1 -1 0
1 -2 0
1 -3 0
1 -4 0
1 -5 0
1 -6 0
1 -7 0
1 -8 0
1 -9 0
1 -10 0
1 -11 0
1 -12 0
h 2 3 7 10 0
h 1 3 8 11 0
h 1 2 9 12 0
h 1 5 6 10 0
h 2 4 6 11 0
h 3 4 5 12 0
h 4 8 9 10 0
h 5 7 9 11 0
h 6 7 8 12 0
